(set-logic QF_S)
(declare-fun T_136 () Bool)
(declare-fun T_137 () Bool)
(declare-fun T_SELECT_26 () Bool)
(declare-fun I0_458 () Int)
(declare-fun I0_462 () Int)
(declare-fun I1_458 () Int)
(declare-fun I1_462 () Int)
(declare-fun I2_458 () Int)
(declare-fun I2_462 () Int)
(declare-fun PCTEMP_LHS_120 () Int)
(declare-fun T_13b () Int)
(declare-fun NEW_DGNode_1646 () String)
(declare-fun NEW_DGNode_1647 () String)
(declare-fun PCTEMP_LHS_160 () String)
(assert (= PCTEMP_LHS_160 NEW_DGNode_1647))
(assert (= NEW_DGNode_1647 NEW_DGNode_1646))
(assert (not (str.in.re NEW_DGNode_1647 (str.to.re "+"))))
(assert (not (str.in.re NEW_DGNode_1646 (str.to.re "%"))))
(assert (= T_SELECT_26 (not (= PCTEMP_LHS_120 (- 1)))))
(assert T_137)
(assert (= T_137 (not T_136)))
(assert (= T_136 (= PCTEMP_LHS_120 (- 1))))
(assert (= I0_458 (- PCTEMP_LHS_120 0)))
(assert (>= PCTEMP_LHS_120 0))
(assert (= I2_458 I1_458))
(assert (<= PCTEMP_LHS_120 I1_458))
(assert (= T_13b (+ PCTEMP_LHS_120 1)))
(assert (>= T_13b 0))
(assert (>= I2_462 T_13b))
(assert (= I2_462 I1_462))
(assert (<= I2_462 I1_462))
(assert (= I0_462 (- I2_462 T_13b)))
(assert (= I0_462 (str.len PCTEMP_LHS_160))) ; len 0
(check-sat)
